50, 977850
3496, 13955
3495, 13345
3252, 13649
3231, 13784
3213, 13475
3307, 13878
3238, 13883
3265, 13759
3278, 13901
3505, 13394
3245, 13377
3298, 13437
3464, 13982
3425, 13557
3386, 13730
3285, 13493
3421, 13134
3278, 13623
3318, 13230
3373, 13521
3437, 13487
3224, 13183
3453, 13049
3215, 13463
3384, 13699
160550, 955525
157339, 942833
154128, 930515
150917, 917615
147706, 905385
144495, 892394
141284, 879705
138073, 866803
134862, 853956
131651, 841213
128440, 828519
125229, 815785
122018, 802856
118807, 790372
115596, 777505
112385, 764608
109174, 752014
105963, 738991
102752, 726928
99541, 713912
96330, 701878
93119, 689604
89908, 676826
86697, 664113
83486, 651274
